This is Ipopt version 3.14.4, running with linear solver MUMPS 5.4.1.

Number of nonzeros in equality constraint Jacobian...:        0
Number of nonzeros in inequality constraint Jacobian.:      810
Number of nonzeros in Lagrangian Hessian.............:        0

Total number of variables............................:       18
                     variables with only lower bounds:        0
                variables with lower and upper bounds:       18
                     variables with only upper bounds:        0
Total number of equality constraints.................:        0
Total number of inequality constraints...............:       45
        inequality constraints with only lower bounds:        0
   inequality constraints with lower and upper bounds:        0
        inequality constraints with only upper bounds:       45

iter    objective    inf_pr   inf_du lg(mu)  ||d||  lg(rg) alpha_du alpha_pr  ls
   0 -4.4523764e+03 0.00e+00 1.29e+00   0.0 0.00e+00    -  0.00e+00 0.00e+00   0
   1 -4.4571360e+03 0.00e+00 1.18e+00   0.4 2.30e+00    -  9.91e-01 1.00e+00f  1
   2 -4.6315835e+03 0.00e+00 2.29e+00  -5.3 2.52e+03    -  9.96e-02 1.44e-01f  1
   3 -4.7370389e+03 3.55e+00 1.82e+00   0.6 1.08e+02    -  1.00e+00 5.50e-01f  1
   4 -4.7907940e+03 0.00e+00 2.19e+00   0.0 3.11e+01    -  9.98e-01 1.00e+00f  1
   5 -4.8227488e+03 9.98e-01 2.45e+00  -0.6 1.46e+02    -  8.13e-01 8.90e-01f  1
   6 -4.9054631e+03 1.34e-01 1.98e+00   0.3 5.13e+01    -  1.00e+00 7.26e-01f  1
   7 -4.9595305e+03 0.00e+00 1.37e+00  -1.7 4.16e+01    -  7.66e-01 1.00e+00f  1
   8 -4.9949975e+03 2.43e-02 6.71e-01  -1.2 4.74e+01    -  1.00e+00 6.16e-01f  1
   9 -5.0079726e+03 9.85e-02 4.36e-01  -1.7 1.79e+01    -  9.49e-01 9.97e-01f  1
iter    objective    inf_pr   inf_du lg(mu)  ||d||  lg(rg) alpha_du alpha_pr  ls
  10 -5.0153840e+03 1.40e-02 2.97e-01  -1.9 1.80e+01    -  9.65e-01 1.00e+00f  1
  11 -5.0191038e+03 3.38e-02 3.86e-01  -3.0 2.06e+01    -  1.00e+00 1.00e+00f  1
  12 -5.0194749e+03 5.48e-02 3.08e-01  -3.1 1.30e+01    -  1.00e+00 1.00e+00f  1
  13 -5.0218001e+03 8.34e-03 4.36e-02  -4.2 8.33e+00    -  1.00e+00 1.00e+00f  1
  14 -5.0219373e+03 3.04e-03 3.44e-02  -5.2 1.70e+00    -  1.00e+00 1.00e+00h  1
  15 -5.0220347e+03 3.53e-03 5.29e-02  -6.6 2.33e+00    -  1.00e+00 1.00e+00f  1
  16 -5.0220528e+03 3.29e-03 7.12e-02  -8.0 3.00e+00    -  1.00e+00 1.00e+00h  1
  17 -5.0221021e+03 1.57e-03 3.82e-02  -9.1 1.10e+00    -  1.00e+00 1.00e+00h  1
  18 -5.0221257e+03 1.04e-04 1.13e-02 -10.8 7.11e-01    -  1.00e+00 1.00e+00h  1
  19 -5.0221372e+03 1.65e-04 9.64e-03 -11.0 5.89e-01    -  1.00e+00 1.00e+00h  1
iter    objective    inf_pr   inf_du lg(mu)  ||d||  lg(rg) alpha_du alpha_pr  ls
  20 -5.0222030e+03 1.28e-02 2.55e-02 -11.0 3.73e+00    -  1.00e+00 1.00e+00f  1
  21 -5.0354038e+03 8.08e+00 7.69e-01 -10.5 3.89e+02    -  1.00e+00 2.35e-01f  2
  22 -4.9377780e+03 4.06e+00 1.28e+00 -11.0 8.45e+01    -  1.00e+00 1.00e+00h  1
  23 -5.0231484e+03 4.19e+00 1.04e+00 -11.0 9.47e+01    -  5.48e-01 5.52e-01f  1
  24 -4.9406007e+03 2.77e-02 1.48e+00  -9.7 8.86e+01    -  1.00e+00 1.00e+00H  1
  25 -5.0332894e+03 7.06e-02 4.93e-01  -1.1 3.34e+01    -  1.00e+00 1.00e+00f  1
  26 -5.0413928e+03 3.23e-01 8.94e-01  -1.9 4.79e+01    -  9.79e-01 1.00e+00f  1
  27 -5.0513098e+03 0.00e+00 3.64e-01  -1.8 2.31e+01    -  9.64e-01 1.00e+00f  1
  28 -5.0531888e+03 4.68e-03 1.06e-01  -2.2 7.40e+00    -  1.00e+00 9.95e-01f  1
  29 -5.0541859e+03 2.03e-02 7.48e-02  -3.2 6.62e+00    -  9.99e-01 1.00e+00f  1
iter    objective    inf_pr   inf_du lg(mu)  ||d||  lg(rg) alpha_du alpha_pr  ls
  30 -5.0546275e+03 2.50e-02 1.04e-01  -3.8 6.85e+00    -  1.00e+00 9.98e-01f  1
  31 -5.0546488e+03 8.59e-03 9.48e-02  -4.6 4.55e+00    -  1.00e+00 1.00e+00h  1
  32 -5.0548243e+03 1.97e-03 4.88e-02  -5.3 2.39e+00    -  1.00e+00 1.00e+00h  1
  33 -5.0548790e+03 1.04e-04 1.53e-02  -6.4 1.07e+00    -  1.00e+00 1.00e+00h  1
  34 -5.0548950e+03 4.71e-04 1.05e-02  -7.9 6.96e-01    -  1.00e+00 1.00e+00h  1
  35 -5.0548216e+03 1.46e-05 7.03e-02  -8.9 3.69e+00    -  1.00e+00 1.00e+00H  1
  36 -5.0548602e+03 1.16e-03 7.90e-02 -10.4 2.44e+00    -  1.00e+00 1.00e+00f  1
  37 -5.0549279e+03 2.06e-03 1.36e-02 -10.5 1.45e+00    -  1.00e+00 1.00e+00h  1
  38 -5.0549221e+03 3.65e-05 2.00e-02 -11.0 3.46e-01    -  1.00e+00 1.00e+00h  1
  39 -5.0549266e+03 3.44e-05 1.33e-03 -11.0 2.36e-01    -  1.00e+00 1.00e+00h  1
iter    objective    inf_pr   inf_du lg(mu)  ||d||  lg(rg) alpha_du alpha_pr  ls
  40 -5.0549266e+03 5.81e-07 8.50e-04 -11.0 3.05e-02    -  1.00e+00 1.00e+00h  1
  41 -5.0549267e+03 6.48e-06 1.02e-03 -11.0 8.36e-02    -  1.00e+00 1.00e+00h  1
  42 -5.0549261e+03 1.41e-09 1.89e-03 -11.0 1.55e-01    -  1.00e+00 1.00e+00H  1
  43 -5.0549268e+03 7.77e-06 3.94e-04 -11.0 1.40e-01    -  1.00e+00 1.00e+00f  1
  44 -5.0549268e+03 4.56e-08 2.38e-04 -11.0 1.19e-02    -  1.00e+00 1.00e+00h  1
  45 -5.0549268e+03 5.96e-08 5.49e-05 -11.0 9.11e-03    -  1.00e+00 1.00e+00h  1
  46 -5.0549268e+03 0.00e+00 6.05e-05 -11.0 1.10e-02    -  1.00e+00 1.00e+00H  1
  47 -5.0549268e+03 9.27e-09 1.94e-05 -11.0 6.32e-03    -  1.00e+00 1.00e+00h  1
  48 -5.0549268e+03 4.04e-10 3.22e-05 -11.0 2.93e-03    -  1.00e+00 1.00e+00h  1
  49 -5.0549268e+03 3.89e-10 6.16e-06 -11.0 2.03e-03    -  1.00e+00 1.00e+00h  1
iter    objective    inf_pr   inf_du lg(mu)  ||d||  lg(rg) alpha_du alpha_pr  ls
  50 -5.0549268e+03 1.52e-10 5.87e-06 -11.0 5.42e-04    -  1.00e+00 1.00e+00h  1

Number of Iterations....: 50

                                   (scaled)                 (unscaled)
Objective...............:  -5.0549267538468494e+03   -5.0549267538468494e+03
Dual infeasibility......:   5.8660614478820239e-06    5.8660614478820239e-06
Constraint violation....:   1.5150337480008573e-10    1.5150337480008573e-10
Variable bound violation:   0.0000000000000000e+00    0.0000000000000000e+00
Complementarity.........:   9.9999999999999994e-12    9.9999999999999994e-12
Overall NLP error.......:   5.8660614478820239e-06    5.8660614478820239e-06


Number of objective function evaluations             = 60
Number of objective gradient evaluations             = 51
Number of equality constraint evaluations            = 0
Number of inequality constraint evaluations          = 60
Number of equality constraint Jacobian evaluations   = 0
Number of inequality constraint Jacobian evaluations = 51
Number of Lagrangian Hessian evaluations             = 0
Total seconds in IPOPT                               = 4.970

EXIT: Maximum Number of Iterations Exceeded.
